--- Job gams_0064_002_32_04_0.67_05_0.50_0.90_11_problem.txt Start 02/24/21 20:05:21 35.2.0 r33388c4 WEX-WEI x86 64bit/MS Windows
--- Applying:
    C:\Users\MariaSosnovskaya\GAMS35\gmsprmNT.txt
--- GAMS Parameters defined
    Input C:\Users\MariaSosnovskaya\Downloads\WfmGams3\problems\gams_0064_002_32_04_0.67_05_0.50_0.90_11_problem.txt
    ScrDir C:\Users\MariaSosnovskaya\Downloads\WfmGams3\225l\
    SysDir C:\Users\MariaSosnovskaya\GAMS35\
Licensee: GAMS Evaluation License                        S210124/0001AB-GEN
          Sobolev Institute of Mathematics, Discrete Optimization LaDCE1098
          C:\Users\MariaSosnovskaya\GAMS35\gamslice.txt
          Evaluation license: Not for commercial or production use
GAMS 35.2.0   Copyright (C) 1987-2021 GAMS Development. All rights reserved
--- Starting compilation
--- gams_0064_002_32_04_0.67_05_0.50_0.90_11_problem.txt(22) 3 Mb
--- . gams_0064_002_32_04_0.67_05_0.50_0.90_11.inc(6600) 3 Mb
--- gams_0064_002_32_04_0.67_05_0.50_0.90_11_problem.txt(98) 3 Mb
--- Starting execution: elapsed 0:00:00.032
--- gams_0064_002_32_04_0.67_05_0.50_0.90_11_problem.txt(6621) 4 Mb
--- Generating MIP model mymodel
--- gams_0064_002_32_04_0.67_05_0.50_0.90_11_problem.txt(6677) 9 Mb
---   16,769 rows  12,289 columns  56,257 non-zeroes
---   12,288 discrete-columns
--- Executing CPLEX (Solvelink=2): elapsed 0:00:00.152

IBM ILOG CPLEX   35.2.0 r33388c4 Released Jun 02, 2021 WEI x86 64bit/MS Window

--- GAMS/Cplex licensed for continuous and discrete problems.
--- Space for names approximately 0.61 Mb
--- Use option 'names no' to turn use of names off
--- GMO memory 6.31 Mb (peak 6.40 Mb)
--- Dictionary memory 0.00 Mb
--- Cplex 20.1.0.1 link memory 0.43 Mb (peak 1.99 Mb)
--- Starting Cplex

Version identifier: 20.1.0.1 | 2021-04-07 | 3a818710c
CPXPARAM_Advance                                 0
CPXPARAM_Threads                                 1
CPXPARAM_MIP_Display                             4
CPXPARAM_TimeLimit                               3600
CPXPARAM_MIP_Tolerances_AbsMIPGap                0
Generic callback                                 0x50
Tried aggregator 2 times.
MIP Presolve eliminated 8321 rows and 962 columns.
Aggregator did 192 substitutions.
Reduced MIP has 8256 rows, 11136 columns, and 37476 nonzeros.
Reduced MIP has 11136 binaries, 0 generals, 0 SOSs, and 0 indicators.
Presolve time = 0.08 sec. (42.06 ticks)
Probing fixed 928 vars, tightened 0 bounds.
Probing changed sense of 56 constraints.
Probing time = 0.08 sec. (29.54 ticks)
Tried aggregator 16 times.
MIP Presolve eliminated 448 rows and 985 columns.
Aggregator did 448 substitutions.
Reduced MIP has 7360 rows, 9703 columns, and 32876 nonzeros.
Reduced MIP has 9703 binaries, 0 generals, 0 SOSs, and 0 indicators.
Presolve time = 0.61 sec. (314.27 ticks)
Probing time = 0.02 sec. (4.39 ticks)
Tried aggregator 1 time.
Detecting symmetries...
Reduced MIP has 7360 rows, 9703 columns, and 32876 nonzeros.
Reduced MIP has 9703 binaries, 0 generals, 0 SOSs, and 0 indicators.
Presolve time = 0.06 sec. (29.11 ticks)
Probing time = 0.01 sec. (4.39 ticks)
Clique table members: 24159.
MIP emphasis: balance optimality and feasibility.
MIP search method: dynamic search.
Parallel mode: none, using 1 thread.
Tried aggregator 1 time.
No LP presolve or aggregator reductions.
Presolve time = 0.02 sec. (4.27 ticks)
Initializing dual steep norms . . .

Iteration log . . .
Iteration:     1   Dual objective     =          8475.000000
Perturbation started.
Iteration:   101   Dual objective     =          8475.000000
Iteration:   455   Dual objective     =          8474.999868
Iteration:   807   Dual objective     =          8474.999766
Iteration:  1177   Dual objective     =          8474.999641
Iteration:  1547   Dual objective     =          8474.999523
Iteration:  1912   Dual objective     =          8474.999404
Iteration:  2273   Dual objective     =          8474.999306
Iteration:  2611   Dual objective     =          8474.999262
Iteration:  2946   Dual objective     =          8474.999226
Iteration:  3258   Dual objective     =          8474.999200
Iteration:  3572   Dual objective     =          8474.999178
Iteration:  3870   Dual objective     =          8474.999160
Iteration:  4147   Dual objective     =          8474.999145
Iteration:  4403   Dual objective     =          8474.999132
Iteration:  4651   Dual objective     =          8474.999121
Iteration:  4899   Dual objective     =          8474.999109
Iteration:  5098   Dual objective     =          8474.999101
Iteration:  5321   Dual objective     =          8474.999093
Iteration:  5513   Dual objective     =          8474.999087
Iteration:  5675   Dual objective     =          8474.999080
Iteration:  5827   Dual objective     =          8474.999076
Iteration:  5984   Dual objective     =          8474.999069
Iteration:  6132   Dual objective     =          8474.999065
Iteration:  6280   Dual objective     =          8474.999059
Iteration:  6410   Dual objective     =          8474.999056
Iteration:  6553   Dual objective     =          8474.999052
Iteration:  6689   Dual objective     =          8474.999049
Iteration:  6818   Dual objective     =          8474.999047
Iteration:  6944   Dual objective     =          8474.999045
Iteration:  7063   Dual objective     =          8474.999043
Iteration:  7186   Dual objective     =          8474.999043
Iteration:  7302   Dual objective     =          8474.999042
Removing perturbation.
Root relaxation solution time = 0.81 sec. (482.48 ticks)

        Nodes                                         Cuts/
   Node  Left     Objective  IInf  Best Integer    Best Bound    ItCnt     Gap

      0     0     8475.0000  1166                   8475.0000     7346         
      0     0     8475.0000   464                    Cuts: 20     7636         
      0     0     8475.0000   422                    Cuts: 95     8283         
      0     0     8475.0000   505                ZeroHalf: 53     8837         
*     0+    0                         8475.0000     8475.0000             0.00%
Found incumbent of value 8475.000000 after 4.21 sec. (2535.35 ticks)
      0     0        cutoff           8475.0000     8475.0000     8837    0.00%
Elapsed time = 4.23 sec. (2535.35 ticks, tree = 0.01 MB, solutions = 1)

Zero-half cuts applied:  42
Lift and project cuts applied:  2
Gomory fractional cuts applied:  13

Root node processing (before b&c):
  Real time             =    4.23 sec. (2535.90 ticks)
Sequential b&c:
  Real time             =    0.00 sec. (0.00 ticks)
                          ------------
Total (root+branch&cut) =    4.23 sec. (2535.90 ticks)

--- MIP status (101): integer optimal solution.
--- Cplex Time: 4.23sec (det. 2535.93 ticks)

--- Fixing integer variables and solving final LP...

Version identifier: 20.1.0.1 | 2021-04-07 | 3a818710c
CPXPARAM_Advance                                 2
CPXPARAM_Threads                                 1
CPXPARAM_MIP_Display                             4
CPXPARAM_TimeLimit                               3600
CPXPARAM_MIP_Tolerances_AbsMIPGap                0
Tried aggregator 1 time.
LP Presolve eliminated 16769 rows and 12290 columns.
All rows and columns eliminated.
Presolve time = 0.00 sec. (7.09 ticks)

--- Fixed MIP status (1): optimal.
--- Cplex Time: 0.02sec (det. 12.43 ticks)


Proven optimal solution
MIP Solution:         8475.000000    (8837 iterations, 0 nodes)
Final Solve:          8475.000000    (0 iterations)

Best possible:        8475.000000
Absolute gap:            0.000000
Relative gap:            0.000000

--- Reading solution for model mymodel
--- gams_0064_002_32_04_0.67_05_0.50_0.90_11_problem.txt(6677) 9 Mb  4 secs
--- Executing after solve: elapsed 0:00:04.562
--- gams_0064_002_32_04_0.67_05_0.50_0.90_11_problem.txt(6678) 9 Mb--- gams_0064_002_32_04_0.67_05_0.50_0.90_11_problem.txt(6698) 9 Mb
--- Putfile results C:\Users\MariaSosnovskaya\Downloads\WfmGams3\problems\gams_0064_002_32_04_0.67_05_0.50_0.90_11_results.txt
*** Status: Normal completion
--- Job gams_0064_002_32_04_0.67_05_0.50_0.90_11_problem.txt Stop 02/24/21 20:05:26 elapsed 0:00:04.644
